(set-logic QF_LIA)
(declare-fun x0 () Int)
(declare-fun x1 () Int)
(declare-fun x2 () Int)
(declare-fun x3 () Int)
(declare-fun x4 () Int)
(declare-fun x5 () Int)
(declare-fun x6 () Int)
(declare-fun x7 () Int)
(declare-fun x8 () Int)
(declare-fun x9 () Int)
(declare-fun A0 () Bool)
(declare-fun A1 () Bool)
(declare-fun A2 () Bool)
(declare-fun A3 () Bool)
(declare-fun A4 () Bool)
(declare-fun A5 () Bool)
(declare-fun A6 () Bool)
(declare-fun A7 () Bool)
(declare-fun A8 () Bool)
(declare-fun A9 () Bool)
(assert (let ((.def_0 (not A2))) (let ((.def_1 (and A2 .def_0))) (let ((.def_2 (not .def_1))) (let ((.def_3 (* 1 x6))) (let ((.def_4 (* 1 x1))) (let ((.def_5 (+ .def_4 .def_3))) (let ((.def_6 (< .def_5 1))) (let ((.def_7 (not .def_6))) (let ((.def_8 (* (- 1) x0))) (let ((.def_9 (< .def_8 1))) (let ((.def_10 (or .def_9 .def_7))) (let ((.def_11 (not .def_10))) (let ((.def_12 (or .def_11 .def_2))) (let ((.def_13 (* 1 x8))) (let ((.def_14 (< .def_13 (- 1)))) (let ((.def_15 (and .def_0 .def_14))) (let ((.def_16 (* 1 x5))) (let ((.def_17 (< .def_16 1))) (let ((.def_18 (not .def_17))) (let ((.def_19 (* (- 1) x7))) (let ((.def_20 (* 1 x2))) (let ((.def_21 (+ .def_20 .def_19))) (let ((.def_22 (< .def_21 (- 1)))) (let ((.def_23 (and .def_22 .def_18))) (let ((.def_24 (not .def_23))) (let ((.def_25 (and .def_24 .def_15))) (let ((.def_26 (not .def_25))) (let ((.def_27 (and .def_26 .def_12))) (let ((.def_28 (* 1 x7))) (let ((.def_29 (< .def_28 1))) (let ((.def_30 (and .def_29 A6))) (let ((.def_31 (* (- 1) x2))) (let ((.def_32 (* 1 x3))) (let ((.def_33 (+ .def_32 .def_31))) (let ((.def_34 (< .def_33 1))) (let ((.def_35 (and A2 .def_34))) (let ((.def_36 (not .def_35))) (let ((.def_37 (or .def_36 .def_30))) (let ((.def_38 (* 1 x0))) (let ((.def_39 (* (- 1) x3))) (let ((.def_40 (+ .def_39 .def_38))) (let ((.def_41 (< .def_40 (- 1)))) (let ((.def_42 (or .def_41 A7))) (let ((.def_43 (< .def_31 1))) (let ((.def_44 (not .def_43))) (let ((.def_45 (< .def_19 (- 1)))) (let ((.def_46 (not .def_45))) (let ((.def_47 (and .def_46 .def_44))) (let ((.def_48 (or .def_47 .def_42))) (let ((.def_49 (and .def_48 .def_37))) (let ((.def_50 (not .def_49))) (let ((.def_51 (and .def_50 .def_27))) (let ((.def_52 (not .def_51))) (let ((.def_53 (< .def_3 1))) (let ((.def_54 (and .def_53 A6))) (let ((.def_55 (not .def_54))) (let ((.def_56 (* (- 1) x4))) (let ((.def_57 (< .def_56 1))) (let ((.def_58 (not .def_57))) (let ((.def_59 (+ .def_31 .def_28))) (let ((.def_60 (< .def_59 (- 1)))) (let ((.def_61 (not .def_60))) (let ((.def_62 (or .def_61 .def_58))) (let ((.def_63 (not .def_62))) (let ((.def_64 (and .def_63 .def_55))) (let ((.def_65 (* (- 1) x5))) (let ((.def_66 (< .def_65 (- 1)))) (let ((.def_67 (not .def_66))) (let ((.def_68 (* (- 1) x6))) (let ((.def_69 (< .def_68 (- 1)))) (let ((.def_70 (and .def_69 .def_67))) (let ((.def_71 (not .def_70))) (let ((.def_72 (not A8))) (let ((.def_73 (< .def_20 (- 1)))) (let ((.def_74 (not .def_73))) (let ((.def_75 (or .def_74 .def_72))) (let ((.def_76 (not .def_75))) (let ((.def_77 (or .def_76 .def_71))) (let ((.def_78 (not .def_77))) (let ((.def_79 (or .def_78 .def_64))) (let ((.def_80 (not A3))) (let ((.def_81 (and .def_80 A6))) (let ((.def_82 (not A4))) (let ((.def_83 (and A1 .def_82))) (let ((.def_84 (and .def_83 .def_81))) (let ((.def_85 (not A7))) (let ((.def_86 (not A0))) (let ((.def_87 (= .def_86 .def_85))) (let ((.def_88 (not .def_87))) (let ((.def_89 (+ .def_8 .def_68))) (let ((.def_90 (< .def_89 (- 1)))) (let ((.def_91 (not .def_90))) (let ((.def_92 (* (- 1) x9))) (let ((.def_93 (< .def_92 1))) (let ((.def_94 (not .def_93))) (let ((.def_95 (and .def_94 .def_91))) (let ((.def_96 (and .def_95 .def_88))) (let ((.def_97 (not .def_96))) (let ((.def_98 (or .def_97 .def_84))) (let ((.def_99 (not .def_98))) (let ((.def_100 (or .def_99 .def_79))) (let ((.def_101 (not .def_100))) (let ((.def_102 (or .def_101 .def_52))) (let ((.def_103 (* 1 x9))) (let ((.def_104 (+ .def_65 .def_103))) (let ((.def_105 (< .def_104 (- 1)))) (let ((.def_106 (or .def_105 A8))) (let ((.def_107 (and A0 A7))) (let ((.def_108 (not .def_107))) (let ((.def_109 (or .def_108 .def_106))) (let ((.def_110 (not A9))) (let ((.def_111 (and .def_110 .def_82))) (let ((.def_112 (not .def_53))) (let ((.def_113 (and A1 .def_112))) (let ((.def_114 (= .def_113 .def_111))) (let ((.def_115 (not .def_114))) (let ((.def_116 (or .def_115 .def_109))) (let ((.def_117 (not .def_116))) (let ((.def_118 (< .def_92 (- 1)))) (let ((.def_119 (not .def_118))) (let ((.def_120 (or A9 .def_119))) (let ((.def_121 (not .def_120))) (let ((.def_122 (+ .def_56 .def_8))) (let ((.def_123 (< .def_122 1))) (let ((.def_124 (not .def_123))) (let ((.def_125 (+ .def_103 .def_28))) (let ((.def_126 (< .def_125 (- 1)))) (let ((.def_127 (or .def_126 .def_124))) (let ((.def_128 (and .def_127 .def_121))) (let ((.def_129 (not .def_128))) (let ((.def_130 (and A8 A1))) (let ((.def_131 (or A4 .def_80))) (let ((.def_132 (and .def_131 .def_130))) (let ((.def_133 (not .def_132))) (let ((.def_134 (or .def_133 .def_129))) (let ((.def_135 (or .def_134 .def_117))) (let ((.def_136 (or .def_110 .def_73))) (let ((.def_137 (* 1 x4))) (let ((.def_138 (< .def_137 (- 1)))) (let ((.def_139 (not .def_138))) (let ((.def_140 (+ .def_103 .def_16))) (let ((.def_141 (< .def_140 1))) (let ((.def_142 (not .def_141))) (let ((.def_143 (and .def_142 .def_139))) (let ((.def_144 (not .def_143))) (let ((.def_145 (or .def_144 .def_136))) (let ((.def_146 (not .def_145))) (let ((.def_147 (* (- 1) x8))) (let ((.def_148 (+ .def_147 .def_56))) (let ((.def_149 (< .def_148 1))) (let ((.def_150 (or A8 .def_149))) (let ((.def_151 (not .def_150))) (let ((.def_152 (* (- 1) x1))) (let ((.def_153 (+ .def_31 .def_152))) (let ((.def_154 (< .def_153 (- 1)))) (let ((.def_155 (not .def_154))) (let ((.def_156 (+ .def_16 .def_4))) (let ((.def_157 (< .def_156 1))) (let ((.def_158 (or .def_157 .def_155))) (let ((.def_159 (and .def_158 .def_151))) (let ((.def_160 (and .def_159 .def_146))) (let ((.def_161 (not .def_160))) (let ((.def_162 (+ .def_68 .def_65))) (let ((.def_163 (< .def_162 (- 1)))) (let ((.def_164 (or .def_163 A2))) (let ((.def_165 (not .def_164))) (let ((.def_166 (+ .def_65 .def_8))) (let ((.def_167 (< .def_166 (- 1)))) (let ((.def_168 (not A5))) (let ((.def_169 (or .def_168 .def_167))) (let ((.def_170 (or .def_169 .def_165))) (let ((.def_171 (not .def_170))) (let ((.def_172 (and A6 A2))) (let ((.def_173 (not A6))) (let ((.def_174 (< .def_147 1))) (let ((.def_175 (not .def_174))) (let ((.def_176 (or .def_175 .def_173))) (let ((.def_177 (or .def_176 .def_172))) (let ((.def_178 (not .def_177))) (let ((.def_179 (or .def_178 .def_171))) (let ((.def_180 (not .def_179))) (let ((.def_181 (or .def_180 .def_161))) (let ((.def_182 (= .def_181 .def_135))) (let ((.def_183 (and .def_182 .def_102))) (let ((.def_184 (<= x9 1))) (let ((.def_185 (<= 0 x9))) (let ((.def_186 (<= x8 1))) (let ((.def_187 (<= 0 x8))) (let ((.def_188 (<= x7 1))) (let ((.def_189 (<= 0 x7))) (let ((.def_190 (<= x6 1))) (let ((.def_191 (<= 0 x6))) (let ((.def_192 (<= x5 1))) (let ((.def_193 (<= 0 x5))) (let ((.def_194 (<= x4 1))) (let ((.def_195 (<= 0 x4))) (let ((.def_196 (<= x3 1))) (let ((.def_197 (<= 0 x3))) (let ((.def_198 (<= x2 1))) (let ((.def_199 (<= 0 x2))) (let ((.def_200 (<= x1 1))) (let ((.def_201 (<= 0 x1))) (let ((.def_202 (<= x0 1))) (let ((.def_203 (<= 0 x0))) (let ((.def_204 (and .def_203 .def_202 .def_201 .def_200 .def_199 .def_198 .def_197 .def_196 .def_195 .def_194 .def_193 .def_192 .def_191 .def_190 .def_189 .def_188 .def_187 .def_186 .def_185 .def_184 .def_183))) .def_204))))))))))))))))))))))))))))))))))))))))))))))))))))))))))))))))))))))))))))))))))))))))))))))))))))))))))))))))))))))))))))))))))))))))))))))))))))))))))))))))))))))))))))))))))))))))))))))))))))))))))))))
(check-sat)
